c Reduced graph for GEOM70a generated by Cyril Grelier
p edge 64 423
e 1 2
e 1 6
e 1 14
e 1 15
e 1 16
e 1 23
e 1 31
e 1 33
e 1 41
e 1 42
e 1 49
e 1 50
e 1 51
e 1 54
e 1 57
e 1 58
e 1 60
e 2 6
e 2 11
e 2 13
e 2 15
e 2 16
e 2 20
e 2 21
e 2 32
e 2 41
e 2 42
e 2 45
e 2 49
e 2 51
e 2 52
e 2 54
e 3 7
e 3 8
e 3 17
e 3 18
e 3 19
e 3 24
e 3 28
e 3 30
e 3 34
e 3 39
e 3 40
e 3 43
e 3 46
e 3 53
e 3 56
e 3 62
e 4 12
e 4 16
e 4 27
e 4 29
e 4 51
e 4 52
e 4 55
e 4 58
e 4 61
e 4 64
e 5 21
e 5 34
e 5 38
e 5 43
e 5 45
e 5 59
e 6 14
e 6 15
e 6 16
e 6 20
e 6 23
e 6 31
e 6 33
e 6 37
e 6 41
e 6 42
e 6 47
e 6 49
e 6 50
e 6 51
e 6 54
e 6 57
e 6 60
e 7 8
e 7 17
e 7 18
e 7 19
e 7 24
e 7 28
e 7 30
e 7 34
e 7 39
e 7 40
e 7 43
e 7 46
e 7 53
e 7 56
e 7 62
e 8 17
e 8 18
e 8 19
e 8 24
e 8 28
e 8 30
e 8 34
e 8 39
e 8 40
e 8 43
e 8 46
e 8 53
e 8 56
e 8 62
e 9 10
e 9 12
e 9 22
e 9 26
e 9 27
e 9 35
e 9 36
e 9 44
e 9 48
e 9 52
e 9 55
e 9 61
e 9 63
e 9 64
e 10 18
e 10 22
e 10 25
e 10 26
e 10 27
e 10 32
e 10 35
e 10 36
e 10 44
e 10 55
e 10 63
e 11 13
e 11 15
e 11 16
e 11 21
e 11 32
e 11 41
e 11 43
e 11 45
e 11 51
e 11 54
e 11 59
e 12 26
e 12 27
e 12 29
e 12 44
e 12 48
e 12 52
e 12 55
e 12 61
e 12 64
e 13 15
e 13 21
e 13 30
e 13 32
e 13 41
e 13 43
e 13 45
e 13 59
e 14 23
e 14 31
e 14 42
e 14 49
e 14 50
e 14 54
e 14 57
e 14 60
e 15 16
e 15 20
e 15 21
e 15 31
e 15 33
e 15 37
e 15 41
e 15 42
e 15 45
e 15 47
e 15 49
e 15 50
e 15 51
e 15 54
e 16 20
e 16 31
e 16 41
e 16 42
e 16 49
e 16 50
e 16 51
e 16 52
e 16 54
e 16 58
e 17 18
e 17 19
e 17 24
e 17 28
e 17 30
e 17 34
e 17 39
e 17 40
e 17 46
e 17 53
e 17 56
e 17 62
e 18 22
e 18 25
e 18 28
e 18 35
e 18 36
e 18 39
e 18 40
e 18 53
e 18 62
e 18 63
e 19 24
e 19 28
e 19 30
e 19 34
e 19 39
e 19 40
e 19 43
e 19 46
e 19 53
e 19 56
e 20 31
e 20 33
e 20 37
e 20 41
e 20 42
e 20 47
e 20 49
e 20 50
e 20 54
e 21 30
e 21 32
e 21 41
e 21 43
e 21 45
e 21 59
e 22 25
e 22 26
e 22 35
e 22 36
e 22 44
e 22 55
e 22 63
e 23 31
e 23 42
e 23 49
e 23 50
e 23 57
e 23 60
e 24 28
e 24 30
e 24 34
e 24 39
e 24 40
e 24 43
e 24 46
e 24 53
e 24 56
e 25 28
e 25 32
e 25 35
e 25 36
e 25 39
e 25 40
e 25 44
e 25 62
e 25 63
e 26 27
e 26 44
e 26 48
e 26 55
e 26 61
e 26 64
e 27 29
e 27 44
e 27 48
e 27 51
e 27 52
e 27 55
e 27 58
e 27 61
e 27 64
e 28 39
e 28 40
e 28 53
e 28 56
e 28 62
e 29 52
e 29 58
e 29 61
e 29 64
e 30 32
e 30 34
e 30 39
e 30 40
e 30 43
e 30 45
e 30 46
e 30 56
e 30 59
e 31 33
e 31 42
e 31 47
e 31 49
e 31 50
e 31 54
e 31 57
e 31 60
e 32 35
e 32 36
e 32 39
e 32 40
e 32 43
e 32 45
e 32 51
e 33 37
e 33 41
e 33 42
e 33 47
e 33 49
e 33 50
e 33 54
e 33 57
e 33 60
e 34 39
e 34 43
e 34 46
e 34 56
e 35 36
e 35 39
e 35 40
e 35 44
e 35 55
e 35 63
e 36 39
e 36 40
e 36 44
e 36 55
e 36 63
e 37 38
e 37 41
e 37 45
e 37 47
e 37 50
e 37 59
e 38 59
e 39 40
e 39 43
e 39 46
e 39 53
e 39 56
e 39 62
e 40 43
e 40 46
e 40 53
e 40 56
e 40 62
e 40 63
e 41 42
e 41 45
e 41 47
e 41 49
e 41 50
e 41 51
e 41 54
e 41 59
e 42 49
e 42 50
e 42 51
e 42 54
e 42 57
e 42 58
e 42 60
e 43 45
e 43 46
e 43 59
e 44 48
e 44 55
e 44 63
e 44 64
e 45 59
e 46 56
e 47 50
e 47 60
e 48 55
e 48 61
e 48 64
e 49 50
e 49 51
e 49 54
e 49 57
e 49 58
e 49 60
e 50 54
e 50 57
e 50 60
e 51 52
e 51 54
e 51 58
e 51 61
e 52 55
e 52 58
e 52 61
e 52 64
e 53 56
e 53 62
e 54 57
e 54 58
e 54 60
e 55 61
e 55 63
e 55 64
e 56 62
e 57 60
e 58 61
e 61 64
e 62 63
